data;

set A := 368 84 922 310 26 336 76 500 236 860 698 172 158 478 830 302 468 454 386 882 226 590 82 904 462 632 924 344 720 160 822 752 526 110 566 86 686 70 672 314 426 352 282 122 366 244 46 576 452 710 104 648 550 190 522 494 586 722 296 976 848 770 876 614 616 690 678 146 496 814 964 712 98 986 318 168 798 732 96 556 294 542 286 756 124 300 838 422 890 304 618 864 484 516 372 582 784 470 744 170;
param T := 25000;

end;
